p tw 78 8581 2 
1 3 
1 4 
1 5 
1 6 
1 7 
1 8 
1 9 
1 10 
1 11 
1 12 
1 13 
1 14 
1 15 
1 16 
1 17 
1 18 
1 19 
1 20 
1 21 
1 22 
1 23 
2 3 
2 4 
2 5 
2 6 
2 7 
2 8 
2 9 
2 10 
2 11 
2 12 
2 13 
2 24 
2 25 
2 26 
2 27 
2 28 
2 29 
2 30 
2 31 
2 32 
2 33 
3 4 
3 5 
3 6 
3 7 
3 8 
3 9 
3 10 
3 11 
3 12 
3 14 
3 24 
3 34 
3 35 
3 36 
3 37 
3 38 
3 39 
3 40 
3 41 
3 42 
4 5 
4 6 
4 7 
4 8 
4 9 
4 10 
4 11 
4 12 
4 15 
4 25 
4 34 
4 43 
4 44 
4 45 
4 46 
4 47 
4 48 
4 49 
4 50 
5 6 
5 7 
5 8 
5 9 
5 10 
5 11 
5 12 
5 16 
5 26 
5 35 
5 43 
5 51 
5 52 
5 53 
5 54 
5 55 
5 56 
5 57 
6 7 
6 8 
6 9 
6 10 
6 11 
6 12 
6 17 
6 27 
6 36 
6 44 
6 51 
6 58 
6 59 
6 60 
6 61 
6 62 
6 63 
7 8 
7 9 
7 10 
7 11 
7 12 
7 18 
7 28 
7 37 
7 45 
7 52 
7 58 
7 64 
7 65 
7 66 
7 67 
7 68 
8 9 
8 10 
8 11 
8 12 
8 19 
8 29 
8 38 
8 46 
8 53 
8 59 
8 64 
8 69 
8 70 
8 71 
8 72 
9 10 
9 11 
9 12 
9 20 
9 30 
9 39 
9 47 
9 54 
9 60 
9 65 
9 69 
9 73 
9 74 
9 75 
10 11 
10 12 
10 21 
10 31 
10 40 
10 48 
10 55 
10 61 
10 66 
10 70 
10 73 
10 76 
10 77 
11 12 
11 22 
11 32 
11 41 
11 49 
11 56 
11 62 
11 67 
11 71 
11 74 
11 76 
11 78 
12 23 
12 33 
12 42 
12 50 
12 57 
12 63 
12 68 
12 72 
12 75 
12 77 
12 78 
13 14 
13 15 
13 16 
13 17 
13 18 
13 19 
13 20 
13 21 
13 22 
13 23 
13 24 
13 25 
13 26 
13 27 
13 28 
13 29 
13 30 
13 31 
13 32 
13 33 
14 15 
14 16 
14 17 
14 18 
14 19 
14 20 
14 21 
14 22 
14 23 
14 24 
14 34 
14 35 
14 36 
14 37 
14 38 
14 39 
14 40 
14 41 
14 42 
15 16 
15 17 
15 18 
15 19 
15 20 
15 21 
15 22 
15 23 
15 25 
15 34 
15 43 
15 44 
15 45 
15 46 
15 47 
15 48 
15 49 
15 50 
16 17 
16 18 
16 19 
16 20 
16 21 
16 22 
16 23 
16 26 
16 35 
16 43 
16 51 
16 52 
16 53 
16 54 
16 55 
16 56 
16 57 
17 18 
17 19 
17 20 
17 21 
17 22 
17 23 
17 27 
17 36 
17 44 
17 51 
17 58 
17 59 
17 60 
17 61 
17 62 
17 63 
18 19 
18 20 
18 21 
18 22 
18 23 
18 28 
18 37 
18 45 
18 52 
18 58 
18 64 
18 65 
18 66 
18 67 
18 68 
19 20 
19 21 
19 22 
19 23 
19 29 
19 38 
19 46 
19 53 
19 59 
19 64 
19 69 
19 70 
19 71 
19 72 
20 21 
20 22 
20 23 
20 30 
20 39 
20 47 
20 54 
20 60 
20 65 
20 69 
20 73 
20 74 
20 75 
21 22 
21 23 
21 31 
21 40 
21 48 
21 55 
21 61 
21 66 
21 70 
21 73 
21 76 
21 77 
22 23 
22 32 
22 41 
22 49 
22 56 
22 62 
22 67 
22 71 
22 74 
22 76 
22 78 
23 33 
23 42 
23 50 
23 57 
23 63 
23 68 
23 72 
23 75 
23 77 
23 78 
24 25 
24 26 
24 27 
24 28 
24 29 
24 30 
24 31 
24 32 
24 33 
24 34 
24 35 
24 36 
24 37 
24 38 
24 39 
24 40 
24 41 
24 42 
25 26 
25 27 
25 28 
25 29 
25 30 
25 31 
25 32 
25 33 
25 34 
25 43 
25 44 
25 45 
25 46 
25 47 
25 48 
25 49 
25 50 
26 27 
26 28 
26 29 
26 30 
26 31 
26 32 
26 33 
26 35 
26 43 
26 51 
26 52 
26 53 
26 54 
26 55 
26 56 
26 57 
27 28 
27 29 
27 30 
27 31 
27 32 
27 33 
27 36 
27 44 
27 51 
27 58 
27 59 
27 60 
27 61 
27 62 
27 63 
28 29 
28 30 
28 31 
28 32 
28 33 
28 37 
28 45 
28 52 
28 58 
28 64 
28 65 
28 66 
28 67 
28 68 
29 30 
29 31 
29 32 
29 33 
29 38 
29 46 
29 53 
29 59 
29 64 
29 69 
29 70 
29 71 
29 72 
30 31 
30 32 
30 33 
30 39 
30 47 
30 54 
30 60 
30 65 
30 69 
30 73 
30 74 
30 75 
31 32 
31 33 
31 40 
31 48 
31 55 
31 61 
31 66 
31 70 
31 73 
31 76 
31 77 
32 33 
32 41 
32 49 
32 56 
32 62 
32 67 
32 71 
32 74 
32 76 
32 78 
33 42 
33 50 
33 57 
33 63 
33 68 
33 72 
33 75 
33 77 
33 78 
34 35 
34 36 
34 37 
34 38 
34 39 
34 40 
34 41 
34 42 
34 43 
34 44 
34 45 
34 46 
34 47 
34 48 
34 49 
34 50 
35 36 
35 37 
35 38 
35 39 
35 40 
35 41 
35 42 
35 43 
35 51 
35 52 
35 53 
35 54 
35 55 
35 56 
35 57 
36 37 
36 38 
36 39 
36 40 
36 41 
36 42 
36 44 
36 51 
36 58 
36 59 
36 60 
36 61 
36 62 
36 63 
37 38 
37 39 
37 40 
37 41 
37 42 
37 45 
37 52 
37 58 
37 64 
37 65 
37 66 
37 67 
37 68 
38 39 
38 40 
38 41 
38 42 
38 46 
38 53 
38 59 
38 64 
38 69 
38 70 
38 71 
38 72 
39 40 
39 41 
39 42 
39 47 
39 54 
39 60 
39 65 
39 69 
39 73 
39 74 
39 75 
40 41 
40 42 
40 48 
40 55 
40 61 
40 66 
40 70 
40 73 
40 76 
40 77 
41 42 
41 49 
41 56 
41 62 
41 67 
41 71 
41 74 
41 76 
41 78 
42 50 
42 57 
42 63 
42 68 
42 72 
42 75 
42 77 
42 78 
43 44 
43 45 
43 46 
43 47 
43 48 
43 49 
43 50 
43 51 
43 52 
43 53 
43 54 
43 55 
43 56 
43 57 
44 45 
44 46 
44 47 
44 48 
44 49 
44 50 
44 51 
44 58 
44 59 
44 60 
44 61 
44 62 
44 63 
45 46 
45 47 
45 48 
45 49 
45 50 
45 52 
45 58 
45 64 
45 65 
45 66 
45 67 
45 68 
46 47 
46 48 
46 49 
46 50 
46 53 
46 59 
46 64 
46 69 
46 70 
46 71 
46 72 
47 48 
47 49 
47 50 
47 54 
47 60 
47 65 
47 69 
47 73 
47 74 
47 75 
48 49 
48 50 
48 55 
48 61 
48 66 
48 70 
48 73 
48 76 
48 77 
49 50 
49 56 
49 62 
49 67 
49 71 
49 74 
49 76 
49 78 
50 57 
50 63 
50 68 
50 72 
50 75 
50 77 
50 78 
51 52 
51 53 
51 54 
51 55 
51 56 
51 57 
51 58 
51 59 
51 60 
51 61 
51 62 
51 63 
52 53 
52 54 
52 55 
52 56 
52 57 
52 58 
52 64 
52 65 
52 66 
52 67 
52 68 
53 54 
53 55 
53 56 
53 57 
53 59 
53 64 
53 69 
53 70 
53 71 
53 72 
54 55 
54 56 
54 57 
54 60 
54 65 
54 69 
54 73 
54 74 
54 75 
55 56 
55 57 
55 61 
55 66 
55 70 
55 73 
55 76 
55 77 
56 57 
56 62 
56 67 
56 71 
56 74 
56 76 
56 78 
57 63 
57 68 
57 72 
57 75 
57 77 
57 78 
58 59 
58 60 
58 61 
58 62 
58 63 
58 64 
58 65 
58 66 
58 67 
58 68 
59 60 
59 61 
59 62 
59 63 
59 64 
59 69 
59 70 
59 71 
59 72 
60 61 
60 62 
60 63 
60 65 
60 69 
60 73 
60 74 
60 75 
61 62 
61 63 
61 66 
61 70 
61 73 
61 76 
61 77 
62 63 
62 67 
62 71 
62 74 
62 76 
62 78 
63 68 
63 72 
63 75 
63 77 
63 78 
64 65 
64 66 
64 67 
64 68 
64 69 
64 70 
64 71 
64 72 
65 66 
65 67 
65 68 
65 69 
65 73 
65 74 
65 75 
66 67 
66 68 
66 70 
66 73 
66 76 
66 77 
67 68 
67 71 
67 74 
67 76 
67 78 
68 72 
68 75 
68 77 
68 78 
69 70 
69 71 
69 72 
69 73 
69 74 
69 75 
70 71 
70 72 
70 73 
70 76 
70 77 
71 72 
71 74 
71 76 
71 78 
72 75 
72 77 
72 78 
73 74 
73 75 
73 76 
73 77 
74 75 
74 76 
74 78 
75 77 
75 78 
76 77 
76 78 
77 78 
